Pt Co  O  H                             
   1.00000000000000     
     4.8842825471096578    0.0000000000000004    0.0000000000000000
     2.4421412735548289    4.2299127650579278    0.0000000000000000
     0.0000000000000000    0.0000000000000000   22.1074186205846814
   Pt   Co   O    H 
     9     3     2     1
Selective dynamics
Direct
  0.3028641450980842  0.4941068991457982  0.0020938984688570   F   F   F
  0.6361974779028969  0.8274402320805478  0.0020938984688570   F   F   F
  0.9695308121633346  0.1607735650152975  0.0020938984688570   F   F   F
  0.6361974779462116  0.4941068991457982  0.1062432299451288   F   F   F
  0.9695308122066422  0.8274402320805478  0.1062432299451288   F   F   F
  0.3028641450114620  0.1607735650152975  0.1062432299451288   F   F   F
  0.3065107226027121  0.4960382790679819  0.2781959831648573   T   T   T
  0.6473892865592245  0.8234962883177200  0.2894235557567493   T   T   T
  0.9726539228137143  0.1582726093935342  0.2871232272003137   T   T   T
  0.9471062857673905  0.4923864657826116  0.1959263626304457   T   T   T
  0.3177879314758835  0.8493297111942534  0.1956506658440754   T   T   T
  0.6476394645154204  0.1447694706407748  0.1937758190664228   T   T   T
  0.8631093520543667  0.0561720694334885  0.3890833953458850   T   T   T
  0.6925667434564386  0.8796461816035431  0.3806112664603266   T   T   T
  0.0710293969431701  0.8865563371154703  0.4029856325124562   T   T   T
 
  0.00000000E+00  0.00000000E+00  0.00000000E+00
  0.00000000E+00  0.00000000E+00  0.00000000E+00
  0.00000000E+00  0.00000000E+00  0.00000000E+00
  0.00000000E+00  0.00000000E+00  0.00000000E+00
  0.00000000E+00  0.00000000E+00  0.00000000E+00
  0.00000000E+00  0.00000000E+00  0.00000000E+00
  0.00000000E+00  0.00000000E+00  0.00000000E+00
  0.00000000E+00  0.00000000E+00  0.00000000E+00
  0.00000000E+00  0.00000000E+00  0.00000000E+00
  0.00000000E+00  0.00000000E+00  0.00000000E+00
  0.00000000E+00  0.00000000E+00  0.00000000E+00
  0.00000000E+00  0.00000000E+00  0.00000000E+00
  0.00000000E+00  0.00000000E+00  0.00000000E+00
  0.00000000E+00  0.00000000E+00  0.00000000E+00
  0.00000000E+00  0.00000000E+00  0.00000000E+00
