Pt  O  H                                
   1.00000000000000     
     4.8842825471096578    0.0000000000000004    0.0000000000000000
     2.4421412735548289    4.2299127650579278    0.0000000000000000
     0.0000000000000000    0.0000000000000000   22.1074186205846814
   Pt   O    H 
    12     2     1
Selective dynamics
Direct
  0.3028641450980842  0.4941068991457982  0.0020938984688570   F   F   F
  0.6361974779028969  0.8274402320805478  0.0020938984688570   F   F   F
  0.9695308121633346  0.1607735650152975  0.0020938984688570   F   F   F
  0.6361974779462116  0.4941068991457982  0.1062432299451288   F   F   F
  0.9695308122066422  0.8274402320805478  0.1062432299451288   F   F   F
  0.3028641450114620  0.1607735650152975  0.1062432299451288   F   F   F
  0.3043605859928383  0.5024604663574060  0.3099680001887797   T   T   T
  0.6368341201543457  0.8400861590182976  0.3175256368256861   T   T   T
  0.9647084021886962  0.1734072590706814  0.3154767972135333   T   T   T
  0.9693610005696323  0.4937324110672616  0.2105990962002560   T   T   T
  0.3109247484638041  0.8326949735830064  0.2108297842529814   T   T   T
  0.6432945660089426  0.1581360660573996  0.2077864631998873   T   T   T
  0.8703037660999958  0.0639276521596133  0.4143590867447932   T   T   T
  0.6950287878109187  0.8889427065264635  0.4069088613245960   T   T   T
  0.0816404956928314  0.8896580180150969  0.4256936317440669   T   T   T
 
  0.00000000E+00  0.00000000E+00  0.00000000E+00
  0.00000000E+00  0.00000000E+00  0.00000000E+00
  0.00000000E+00  0.00000000E+00  0.00000000E+00
  0.00000000E+00  0.00000000E+00  0.00000000E+00
  0.00000000E+00  0.00000000E+00  0.00000000E+00
  0.00000000E+00  0.00000000E+00  0.00000000E+00
  0.00000000E+00  0.00000000E+00  0.00000000E+00
  0.00000000E+00  0.00000000E+00  0.00000000E+00
  0.00000000E+00  0.00000000E+00  0.00000000E+00
  0.00000000E+00  0.00000000E+00  0.00000000E+00
  0.00000000E+00  0.00000000E+00  0.00000000E+00
  0.00000000E+00  0.00000000E+00  0.00000000E+00
  0.00000000E+00  0.00000000E+00  0.00000000E+00
  0.00000000E+00  0.00000000E+00  0.00000000E+00
  0.00000000E+00  0.00000000E+00  0.00000000E+00
