INCAR created by Atomic Simulation Environment
 ENCUT = 450.000000
 SIGMA = 0.200000
 POTIM = 0.230000
 EDIFF = 1.00e-06
 EDIFFG = -1.00e-02
 GGA = 91
 ALGO = NORMAL
 ISMEAR = 2
 NCORE = 24
 NELMIN = 8
 ISTART = 0
 ICHARG = 2
 NSW = 1500
 INIWAV = 1
 IBRION = 2
 IDIPOL = 3
 LCHARG = .TRUE.
 LDIPOL = .TRUE.
 LWAVE = .FALSE.
