Pt Ni  O  H 
 1.0000000000000000
     4.8842825471096578    0.0000000000000004    0.0000000000000000
     2.4421412735548289    4.2299127650579278    0.0000000000000000
     0.0000000000000000    0.0000000000000000   22.1074186205846814
   9   3   2   1
Selective dynamics
Cartesian
  2.6859529100000068  2.0900290800000021  0.0462906900000230   F   F   F
  5.1280941799999944  3.5000000000000040  0.0462906900000230   F   F   F
  5.1280941835548361  0.6800581549420779  0.0462906900000230   F   F   F
  4.3140470900000096  2.0900290800000021  2.3487635600000005   F   F   F
  6.7561883671096457  3.5000000000000040  2.3487635600000005   F   F   F
  1.8719058164451812  0.6800581549420777  2.3487635600000005   F   F   F
  2.6859529100000068  2.0900290800000021  6.3427852166342680   T   T   T
  5.1280941799999944  3.5000000000000040  6.3427852166342680   T   T   T
  5.1280941835548361  0.6800581549420779  6.3427852166342680   T   T   T
  5.9421412771096618  2.0900290800000021  4.3244270767631434   T   T   T
  3.4999999999999916  3.5000000000000036  4.3244270767631434   T   T   T
  3.4999999964451840  0.6800581549420778  4.3244270767631434   T   T   T
  4.2100869999999997  0.1587740000000000  8.7787210000000009   T   T   T
  5.4194610000000001  3.6532149999999999  8.4756079999999994   T   T   T
  2.3881960000000002  3.6414930000000001  9.0206909999999993   T   T   T
