Pt Au  O  H                             
   1.00000000000000     
     4.8842825471096578    0.0000000000000004    0.0000000000000000
     2.4421412735548289    4.2299127650579278    0.0000000000000000
     0.0000000000000000    0.0000000000000000   22.1074186205846814
   Pt   Au   O    H 
     9     3     2     1
Selective dynamics
Direct
  0.3028641450980842  0.4941068991457982  0.0020938984688570   F   F   F
  0.6361974779028969  0.8274402320805478  0.0020938984688570   F   F   F
  0.9695308121633346  0.1607735650152975  0.0020938984688570   F   F   F
  0.6361974779462116  0.4941068991457982  0.1062432299451288   F   F   F
  0.9695308122066422  0.8274402320805478  0.1062432299451288   F   F   F
  0.3028641450114620  0.1607735650152975  0.1062432299451288   F   F   F
  0.2965826251398014  0.4914976535255801  0.3234712954373590   T   T   T
  0.6300043936390300  0.8252586424664049  0.3288451794469831   T   T   T
  0.9598191066325137  0.1570692183465212  0.3245390006835797   T   T   T
  0.9634794733857721  0.4944640955599797  0.2160832159628651   T   T   T
  0.3012974894522117  0.8272353306310616  0.2162836149056760   T   T   T
  0.6331271988520549  0.1576093550368239  0.2152217304105464   T   T   T
  0.7857572508044984  0.9960614385712139  0.4437108088598235   T   T   T
  0.6442184606678737  0.8220744279887167  0.4203110285823762   T   T   T
  0.0090267871911060  0.8302323041341217  0.4485375124568852   T   T   T
 
  0.00000000E+00  0.00000000E+00  0.00000000E+00
  0.00000000E+00  0.00000000E+00  0.00000000E+00
  0.00000000E+00  0.00000000E+00  0.00000000E+00
  0.00000000E+00  0.00000000E+00  0.00000000E+00
  0.00000000E+00  0.00000000E+00  0.00000000E+00
  0.00000000E+00  0.00000000E+00  0.00000000E+00
  0.00000000E+00  0.00000000E+00  0.00000000E+00
  0.00000000E+00  0.00000000E+00  0.00000000E+00
  0.00000000E+00  0.00000000E+00  0.00000000E+00
  0.00000000E+00  0.00000000E+00  0.00000000E+00
  0.00000000E+00  0.00000000E+00  0.00000000E+00
  0.00000000E+00  0.00000000E+00  0.00000000E+00
  0.00000000E+00  0.00000000E+00  0.00000000E+00
  0.00000000E+00  0.00000000E+00  0.00000000E+00
  0.00000000E+00  0.00000000E+00  0.00000000E+00
