Pt Rh  O  H                             
   1.00000000000000     
     4.8842825471096578    0.0000000000000004    0.0000000000000000
     2.4421412735548289    4.2299127650579278    0.0000000000000000
     0.0000000000000000    0.0000000000000000   22.1074186205846814
   Pt   Rh   O    H 
     9     3     2     1
Selective dynamics
Direct
  0.3028641450980842  0.4941068991457982  0.0020938984688570   F   F   F
  0.6361974779028969  0.8274402320805478  0.0020938984688570   F   F   F
  0.9695308121633346  0.1607735650152975  0.0020938984688570   F   F   F
  0.6361974779462116  0.4941068991457982  0.1062432299451288   F   F   F
  0.9695308122066422  0.8274402320805478  0.1062432299451288   F   F   F
  0.3028641450114620  0.1607735650152975  0.1062432299451288   F   F   F
  0.3096489195034908  0.4937124264752819  0.3005934403977484   T   T   T
  0.6467455810732208  0.8252173313457141  0.3080951846778724   T   T   T
  0.9736838372044870  0.1602880383556806  0.3058017905954150   T   T   T
  0.9651221946313118  0.4938343688125330  0.2053074070772072   T   T   T
  0.3114373857821987  0.8333999347579202  0.2051722924903347   T   T   T
  0.6412756546718197  0.1563122512862565  0.2031767609246093   T   T   T
  0.8638329172311774  0.0513774686389795  0.4079598629792467   T   T   T
  0.6923507604525980  0.8767910969248557  0.3987649969432052   T   T   T
  0.0740927165434160  0.8788870668229536  0.4201922345008203   T   T   T
 
  0.00000000E+00  0.00000000E+00  0.00000000E+00
  0.00000000E+00  0.00000000E+00  0.00000000E+00
  0.00000000E+00  0.00000000E+00  0.00000000E+00
  0.00000000E+00  0.00000000E+00  0.00000000E+00
  0.00000000E+00  0.00000000E+00  0.00000000E+00
  0.00000000E+00  0.00000000E+00  0.00000000E+00
  0.00000000E+00  0.00000000E+00  0.00000000E+00
  0.00000000E+00  0.00000000E+00  0.00000000E+00
  0.00000000E+00  0.00000000E+00  0.00000000E+00
  0.00000000E+00  0.00000000E+00  0.00000000E+00
  0.00000000E+00  0.00000000E+00  0.00000000E+00
  0.00000000E+00  0.00000000E+00  0.00000000E+00
  0.00000000E+00  0.00000000E+00  0.00000000E+00
  0.00000000E+00  0.00000000E+00  0.00000000E+00
  0.00000000E+00  0.00000000E+00  0.00000000E+00
