Pt Pd  O  H                             
   1.00000000000000     
     4.8842825471096578    0.0000000000000004    0.0000000000000000
     2.4421412735548289    4.2299127650579278    0.0000000000000000
     0.0000000000000000    0.0000000000000000   22.1074186205846814
   Pt   Pd   O    H 
     9     3     2     1
Selective dynamics
Direct
  0.3028641450980842  0.4941068991457982  0.0020938984688570   F   F   F
  0.6361974779028969  0.8274402320805478  0.0020938984688570   F   F   F
  0.9695308121633346  0.1607735650152975  0.0020938984688570   F   F   F
  0.6361974779462116  0.4941068991457982  0.1062432299451288   F   F   F
  0.9695308122066422  0.8274402320805478  0.1062432299451288   F   F   F
  0.3028641450114620  0.1607735650152975  0.1062432299451288   F   F   F
  0.3091897673271604  0.4924700901891962  0.3089514597402792   T   T   T
  0.6431811089328003  0.8252072616298531  0.3160977033141467   T   T   T
  0.9723500211777232  0.1576671284901494  0.3112889699248512   T   T   T
  0.9680770238436376  0.4965264655811961  0.2089677447231362   T   T   T
  0.3090464583000727  0.8293021944950910  0.2088915418623027   T   T   T
  0.6401519299027441  0.1565531655904496  0.2077014144611257   T   T   T
  0.8055566206989747  0.0088744943226367  0.4286355946141484   T   T   T
  0.6534985744144409  0.8398212531335719  0.4074252073638624   T   T   T
  0.0253130991550915  0.8372504436182669  0.4347407778100222   T   T   T
 
  0.00000000E+00  0.00000000E+00  0.00000000E+00
  0.00000000E+00  0.00000000E+00  0.00000000E+00
  0.00000000E+00  0.00000000E+00  0.00000000E+00
  0.00000000E+00  0.00000000E+00  0.00000000E+00
  0.00000000E+00  0.00000000E+00  0.00000000E+00
  0.00000000E+00  0.00000000E+00  0.00000000E+00
  0.00000000E+00  0.00000000E+00  0.00000000E+00
  0.00000000E+00  0.00000000E+00  0.00000000E+00
  0.00000000E+00  0.00000000E+00  0.00000000E+00
  0.00000000E+00  0.00000000E+00  0.00000000E+00
  0.00000000E+00  0.00000000E+00  0.00000000E+00
  0.00000000E+00  0.00000000E+00  0.00000000E+00
  0.00000000E+00  0.00000000E+00  0.00000000E+00
  0.00000000E+00  0.00000000E+00  0.00000000E+00
  0.00000000E+00  0.00000000E+00  0.00000000E+00
